1 -1 2 0
1 2 -1 0
1 -2 3 0
1 -4 5 0
1 4 -6 0
1 -4 7 0
1 4 -8 0
1 4 9 0
1 7 -6 0
1 -10 11 0
1 -10 12 0
1 10 2 0
1 10 -13 0
1 10 -14 0
1 10 4 0
1 3 11 0
1 -3 -15 0
1 3 13 0
1 -3 -16 0
1 3 -4 0
1 3 -1 0
1 17 -18 0
1 17 -19 0
1 -17 7 0
1 -17 20 0
1 17 -21 0
1 17 -4 0
1 -17 1 0
1 9 11 0
1 -9 -2 0
1 -9 -13 0
1 -9 -21 0
1 -9 22 0
1 -9 -4 0
1 -9 1 0
1 -14 -15 0
1 -14 -23 0
1 -14 -8 0
1 -14 -22 0
1 14 -3 0
1 15 -5 0
1 15 23 0
1 15 -8 0
1 15 -14 0
1 -15 -3 0
1 16 5 0
1 -16 -12 0
1 -16 24 0
1 16 -10 0
1 16 23 0
1 16 -25 0
1 16 21 0
1 -12 -10 0
1 12 -16 0
1 -12 26 0
1 8 7 0
1 8 27 0
1 8 -28 0
1 8 -29 0
1 8 16 0
1 -8 30 0
1 -6 -31 0
1 6 32 0
1 6 -33 0
1 6 15 0
1 6 -7 0
1 -6 -34 0
1 6 27 0
1 6 28 0
1 -6 -8 0
1 -6 -16 0
1 6 14 0
1 -6 -4 0
1 23 -11 0
1 23 -14 0
1 23 30 0
1 5 -35 0
1 5 15 0
1 -5 -7 0
1 5 -34 0
1 5 -36 0
1 5 13 0
1 5 -4 0
1 28 8 0
1 -32 6 0
1 32 11 0
1 -32 24 0
1 -32 -28 0
1 -32 -8 0
1 -32 25 0
1 32 26 0
1 -27 31 0
1 -27 -6 0
1 27 -37 0
1 27 -8 0
1 -31 -6 0
1 31 24 0
1 31 25 0
1 -26 -37 0
1 26 38 0
1 26 28 0
1 26 -16 0
1 26 -39 0
1 -37 -32 0
1 -37 -28 0
1 -37 -39 0
1 25 -24 0
1 25 -38 0
1 -25 -40 0
1 -25 34 0
1 25 27 0
1 25 16 0
1 25 -41 0
1 24 31 0
1 -24 -42 0
1 -24 40 0
1 -24 -27 0
1 -24 25 0
1 24 41 0
1 24 -30 0
1 -43 44 0
1 -43 45 0
1 -43 46 0
1 43 -47 0
1 43 -1 0
1 -46 44 0
1 46 45 0
1 46 48 0
1 -46 43 0
1 49 -44 0
1 49 45 0
1 49 -50 0
1 -49 -51 0
1 -49 52 0
1 51 -44 0
1 51 -45 0
1 -51 -50 0
1 51 -53 0
1 -51 -48 0
1 -51 -54 0
1 -51 -49 0
1 -45 55 0
1 -45 18 0
1 -45 -56 0
1 -45 51 0
1 45 -46 0
1 -45 -47 0
1 45 21 0
1 -47 -45 0
1 47 18 0
1 -47 -46 0
1 47 57 0
1 47 -58 0
1 47 -21 0
1 -47 -49 0
1 -44 -59 0
1 -44 -55 0
1 44 -60 0
1 44 -48 0
1 -44 61 0
1 48 44 0
1 -48 -62 0
1 48 60 0
1 -48 46 0
1 48 -58 0
1 -48 -61 0
1 48 63 0
1 48 -43 0
1 -22 -19 0
1 -22 -54 0
1 22 -14 0
1 19 45 0
1 19 -64 0
1 19 54 0
1 -21 -45 0
1 -21 50 0
1 21 -65 0
1 -21 -17 0
1 -21 47 0
1 -21 -16 0
1 -21 -61 0
1 21 66 0
1 18 45 0
1 18 -50 0
1 18 64 0
1 18 -67 0
1 -18 -47 0
1 18 -52 0
1 18 21 0
1 64 -68 0
1 -64 11 0
1 -64 -18 0
1 64 -13 0
1 64 -21 0
1 64 -22 0
1 -54 11 0
1 54 -19 0
1 -54 21 0
1 50 68 0
1 -50 -69 0
1 50 55 0
1 -50 51 0
1 -50 70 0
1 -50 71 0
1 -50 52 0
1 50 -21 0
1 -50 -22 0
1 -52 -69 0
1 -52 -51 0
1 -52 71 0
1 52 72 0
1 52 -22 0
1 52 -49 0
1 -13 64 0
1 -13 65 0
1 -13 -66 0
1 13 3 0
1 -11 -67 0
1 -11 10 0
1 -11 54 0
1 -11 66 0
1 11 3 0
1 -36 73 0
1 -36 5 0
1 36 64 0
1 -36 65 0
1 36 67 0
1 -36 74 0
1 -36 23 0
1 -36 -54 0
1 -36 75 0
1 35 -31 0
1 35 69 0
1 -35 65 0
1 35 -67 0
1 -35 20 0
1 35 74 0
1 -35 23 0
1 -35 54 0
1 35 75 0
1 35 -66 0
1 -35 76 0
1 67 -40 0
1 67 -36 0
1 67 13 0
1 67 77 0
1 -66 35 0
1 66 18 0
1 -66 -78 0
1 -66 40 0
1 66 -34 0
1 -66 36 0
1 -66 77 0
1 -66 -30 0
1 65 68 0
1 -65 35 0
1 65 18 0
1 -65 -78 0
1 -65 36 0
1 65 13 0
1 65 -79 0
1 75 -68 0
1 -75 35 0
1 75 -11 0
1 75 -18 0
1 -75 78 0
1 -75 13 0
1 34 73 0
1 -34 -67 0
1 34 20 0
1 -34 -8 0
1 -34 76 0
1 -30 -68 0
1 30 5 0
1 30 -6 0
1 -30 24 0
1 -30 -23 0
1 -30 -8 0
1 -30 -76 0
1 40 80 0
1 40 -33 0
1 40 -67 0
1 40 81 0
1 -40 -74 0
1 40 -25 0
1 40 -66 0
1 -40 -41 0
1 40 76 0
1 41 73 0
1 41 -80 0
1 -41 67 0
1 -41 40 0
1 -41 -20 0
1 -41 -74 0
1 -41 25 0
1 -41 -76 0
1 41 -79 0
1 -74 35 0
1 74 -82 0
1 -74 38 0
1 74 -40 0
1 74 10 0
1 -74 83 0
1 74 -84 0
1 74 30 0
1 -73 -35 0
1 -73 82 0
1 -73 -85 0
1 -73 -40 0
1 -73 36 0
1 -73 -3 0
1 73 39 0
1 20 -86 0
1 20 -78 0
1 -20 40 0
1 20 -17 0
1 20 87 0
1 -20 -36 0
1 20 -88 0
1 -20 -77 0
1 -20 -41 0
1 -76 40 0
1 76 -20 0
1 -76 -36 0
1 76 -89 0
1 -76 88 0
1 76 -77 0
1 -76 30 0
1 38 -80 0
1 -38 -24 0
1 38 37 0
1 -38 -78 0
1 38 -74 0
1 -38 -90 0
1 -38 29 0
1 38 25 0
1 -38 -26 0
1 38 -39 0
1 -39 73 0
1 -39 80 0
1 39 -33 0
1 39 -24 0
1 39 74 0
1 -39 29 0
1 -39 25 0
1 -85 73 0
1 85 80 0
1 85 91 0
1 -85 74 0
1 -85 90 0
1 -85 -29 0
1 85 -92 0
1 -85 93 0
1 -84 73 0
1 84 80 0
1 84 -42 0
1 -84 85 0
1 -84 74 0
1 84 92 0
1 84 -88 0
1 29 94 0
1 -29 95 0
1 -29 -38 0
1 -29 96 0
1 29 -97 0
1 29 -84 0
1 29 -39 0
1 33 94 0
1 -33 -98 0
1 -33 95 0
1 33 -85 0
1 33 -38 0
1 33 99 0
1 -33 97 0
1 -33 -84 0
1 -90 -94 0
1 90 100 0
1 -90 82 0
1 -90 85 0
1 -90 -23 0
1 90 -99 0
1 90 -89 0
1 -90 39 0
1 -80 -101 0
1 80 94 0
1 -80 100 0
1 80 -40 0
1 80 -84 0
1 -95 91 0
1 -95 92 0
1 -97 42 0
1 97 -95 0
1 97 -91 0
1 97 -92 0
1 -97 -89 0
1 -98 -42 0
1 98 100 0
1 -98 91 0
1 -98 93 0
1 -102 -33 0
1 102 -91 0
1 -102 -103 0
1 93 104 0
1 93 -98 0
1 93 -95 0
1 93 102 0
1 -93 -26 0
1 93 84 0
1 93 -105 0
1 -91 -37 0
1 -91 -95 0
1 -91 -106 0
1 91 -85 0
1 91 102 0
1 91 84 0
1 -91 93 0
1 92 -94 0
1 -92 -42 0
1 -92 95 0
1 92 107 0
1 -92 -99 0
1 -92 -25 0
1 -92 108 0
1 -42 109 0
1 42 95 0
1 -42 110 0
1 42 107 0
1 42 92 0
1 42 -102 0
1 -111 112 0
1 -111 113 0
1 -111 114 0
1 -111 -43 0
1 -111 115 0
1 116 112 0
1 116 -117 0
1 -116 -113 0
1 118 117 0
1 -118 -119 0
1 118 53 0
1 118 120 0
1 -118 -121 0
1 -53 51 0
1 53 122 0
1 -53 123 0
1 53 121 0
1 -53 120 0
1 -114 -124 0
1 -114 60 0
1 114 61 0
1 114 -63 0
1 114 118 0
1 117 124 0
1 117 62 0
1 117 60 0
1 -117 -125 0
1 -117 61 0
1 113 -112 0
1 -113 126 0
1 -113 -53 0
1 -113 -116 0
1 -113 -125 0
1 -113 127 0
1 -113 -128 0
1 113 -118 0
1 112 -129 0
1 112 -53 0
1 -112 -128 0
1 -112 -118 0
1 63 -44 0
1 63 117 0
1 63 -60 0
1 -63 -122 0
1 -63 48 0
1 -63 128 0
1 63 -121 0
1 60 -117 0
1 -60 -19 0
1 -60 -119 0
1 -60 126 0
1 60 120 0
1 60 -121 0
1 -61 -130 0
1 -61 -122 0
1 61 -131 0
1 -61 -48 0
1 61 120 0
1 -62 130 0
1 -62 -114 0
1 -62 18 0
1 62 61 0
1 62 120 0
1 -62 -121 0
1 -121 -132 0
1 -121 -133 0
1 -121 -61 0
1 -121 134 0
1 -122 -69 0
1 122 -55 0
1 122 -133 0
1 122 58 0
1 122 121 0
1 122 -63 0
1 -122 -118 0
1 120 132 0
1 -120 135 0
1 120 124 0
1 120 62 0
1 -120 53 0
1 -120 133 0
1 120 136 0
1 -120 63 0
1 120 118 0
1 -119 62 0
1 119 -60 0
1 -119 -137 0
1 119 -53 0
1 -119 120 0
1 -119 -133 0
1 -58 130 0
1 58 -45 0
1 -58 50 0
1 58 -131 0
1 58 -138 0
1 58 -48 0
1 58 -47 0
1 58 -52 0
1 -58 -125 0
1 -58 121 0
1 55 44 0
1 -55 45 0
1 -55 -50 0
1 55 -48 0
1 55 -121 0
1 55 139 0
1 -71 -130 0
1 -71 69 0
1 71 59 0
1 -71 56 0
1 -71 -50 0
1 -71 -122 0
1 69 35 0
1 69 -50 0
1 69 -131 0
1 69 -140 0
1 -69 -52 0
1 69 -57 0
1 -69 -121 0
1 -130 68 0
1 -130 69 0
1 -130 -55 0
1 130 141 0
1 -130 71 0
1 -130 58 0
1 130 61 0
1 -130 -142 0
1 130 -79 0
1 138 68 0
1 -138 130 0
1 138 -69 0
1 138 55 0
1 138 62 0
1 -138 141 0
1 -138 -143 0
1 138 -71 0
1 -138 -61 0
1 -138 79 0
1 -139 144 0
1 139 62 0
1 -139 131 0
1 -139 -58 0
1 139 61 0
1 139 142 0
1 139 145 0
1 -131 -69 0
1 131 55 0
1 131 -62 0
1 131 133 0
1 131 58 0
1 131 -61 0
1 -131 -142 0
1 131 139 0
1 -131 -145 0
1 -70 68 0
1 70 -64 0
1 -70 -34 0
1 -70 -140 0
1 70 -57 0
1 70 54 0
1 -70 75 0
1 68 132 0
1 68 59 0
1 -68 56 0
1 68 -65 0
1 68 -70 0
1 -68 52 0
1 -68 -54 0
1 -68 -75 0
1 -68 30 0
1 -81 -65 0
1 81 -138 0
1 81 140 0
1 -81 57 0
1 -81 72 0
1 81 146 0
1 -81 75 0
1 79 -59 0
1 -79 -56 0
1 -79 65 0
1 -79 -81 0
1 79 -138 0
1 79 -140 0
1 79 146 0
1 56 68 0
1 -56 -69 0
1 -56 147 0
1 56 -86 0
1 -56 70 0
1 56 148 0
1 -56 77 0
1 56 79 0
1 57 -68 0
1 57 69 0
1 57 149 0
1 57 70 0
1 -57 88 0
1 -59 44 0
1 -59 -150 0
1 -59 149 0
1 -59 151 0
1 -59 141 0
1 59 81 0
1 -59 70 0
1 59 71 0
1 -59 -148 0
1 59 -79 0
1 -140 68 0
1 140 59 0
1 -140 -151 0
1 -140 -81 0
1 -140 70 0
1 140 -48 0
1 140 -152 0
1 -140 71 0
1 -140 -148 0
1 140 142 0
1 78 -67 0
1 78 -66 0
1 -78 76 0
1 -77 -153 0
1 77 -154 0
1 77 65 0
1 77 -67 0
1 -77 78 0
1 -77 -20 0
1 -77 -57 0
1 77 146 0
1 77 75 0
1 77 -39 0
1 77 -76 0
1 86 56 0
1 -86 155 0
1 -86 72 0
1 86 146 0
1 -88 -56 0
1 -88 -153 0
1 -88 156 0
1 88 -57 0
1 88 146 0
1 88 -84 0
1 -88 155 0
1 -88 157 0
1 -88 -158 0
1 -88 -76 0
1 -154 100 0
1 -154 -64 0
1 154 -82 0
1 -154 -81 0
1 -154 -89 0
1 -146 -100 0
1 146 154 0
1 -146 78 0
1 -146 81 0
1 -146 159 0
1 146 -54 0
1 -146 89 0
1 146 160 0
1 153 -161 0
1 153 162 0
1 -153 163 0
1 -153 -149 0
1 -153 -86 0
1 153 -72 0
1 153 -164 0
1 -153 -88 0
1 153 77 0
1 72 -86 0
1 72 -78 0
1 72 -52 0
1 72 148 0
1 -72 -88 0
1 -72 -77 0
1 -72 -79 0
1 -82 73 0
1 -82 149 0
1 82 165 0
1 -82 -20 0
1 82 89 0
1 82 -76 0
1 89 -73 0
1 89 -80 0
1 89 82 0
1 89 165 0
1 89 -74 0
1 -89 -97 0
1 -89 148 0
1 89 155 0
1 89 -158 0
1 100 166 0
1 100 156 0
1 100 83 0
1 100 -90 0
1 100 -103 0
1 100 -146 0
1 -100 167 0
1 -103 -166 0
1 103 -100 0
1 103 165 0
1 -103 -87 0
1 -103 90 0
1 -103 102 0
1 -103 158 0
1 -103 167 0
1 -165 109 0
1 -165 -67 0
1 -165 168 0
1 -165 -107 0
1 -165 -103 0
1 165 88 0
1 158 -94 0
1 158 100 0
1 -158 82 0
1 -158 165 0
1 -158 89 0
1 158 88 0
1 158 66 0
1 156 -169 0
1 156 170 0
1 156 155 0
1 -156 65 0
1 -156 -86 0
1 -156 -159 0
1 -156 -103 0
1 -155 -170 0
1 155 82 0
1 -155 -156 0
1 155 171 0
1 -155 172 0
1 155 159 0
1 -155 -103 0
1 -155 75 0
1 -155 -173 0
1 94 -33 0
1 -94 42 0
1 94 -165 0
1 -94 99 0
1 94 29 0
1 -94 -167 0
1 -99 80 0
1 99 -42 0
1 -99 -87 0
1 99 -83 0
1 99 90 0
1 -99 159 0
1 109 101 0
1 -109 42 0
1 109 -165 0
1 109 87 0
1 -109 96 0
1 -109 -92 0
1 107 -166 0
1 -107 109 0
1 107 101 0
1 -107 42 0
1 -107 165 0
1 -107 87 0
1 -107 83 0
1 -107 -174 0
1 107 -96 0
1 -107 -92 0
1 -107 158 0
1 -83 104 0
1 -83 -166 0
1 -83 175 0
1 83 176 0
1 83 74 0
1 83 -103 0
1 -83 177 0
1 166 -73 0
1 166 -100 0
1 -166 175 0
1 -166 176 0
1 -166 110 0
1 166 -107 0
1 166 -99 0
1 -166 -103 0
1 87 109 0
1 87 100 0
1 87 175 0
1 87 -178 0
1 87 20 0
1 87 -171 0
1 -87 -107 0
1 -87 -179 0
1 -87 177 0
1 -87 167 0
1 87 180 0
1 167 181 0
1 167 -100 0
1 -167 175 0
1 167 171 0
1 167 107 0
1 -167 87 0
1 167 99 0
1 167 -103 0
1 167 76 0
1 104 -169 0
1 -104 166 0
1 -104 -101 0
1 104 91 0
1 -104 110 0
1 -104 -83 0
1 104 -96 0
1 -104 92 0
1 110 -104 0
1 110 182 0
1 -110 91 0
1 110 83 0
1 110 174 0
1 -110 92 0
1 110 -93 0
1 -183 -166 0
1 -183 -101 0
1 183 106 0
1 183 -176 0
1 -183 -83 0
1 -183 -105 0
1 -183 180 0
1 176 -184 0
1 176 106 0
1 -176 83 0
1 -176 183 0
1 -96 -104 0
1 96 182 0
1 96 185 0
1 96 110 0
1 96 -107 0
1 -96 186 0
1 96 -187 0
1 96 -188 0
1 -96 189 0
1 96 183 0
1 -182 -104 0
1 182 -33 0
1 182 190 0
1 -182 185 0
1 -182 -191 0
1 -182 110 0
1 182 107 0
1 -182 -96 0
1 182 -188 0
1 182 -189 0
1 182 183 0
1 174 109 0
1 -174 -101 0
1 174 -192 0
1 -174 -176 0
1 -174 90 0
1 174 -187 0
1 174 -177 0
1 101 -109 0
1 -101 -193 0
1 101 176 0
1 101 110 0
1 -101 -107 0
1 -101 174 0
1 101 187 0
1 101 183 0
1 189 182 0
1 -189 -106 0
1 189 177 0
1 -194 -184 0
1 194 -108 0
1 194 189 0
1 188 -184 0
1 -188 106 0
1 -188 108 0
1 -191 -105 0
1 191 106 0
1 105 195 0
1 105 191 0
1 -105 176 0
1 105 -196 0
1 106 105 0
1 -106 -91 0
1 -106 -197 0
1 106 -198 0
1 106 188 0
1 -106 183 0
1 -108 -195 0
1 -108 199 0
1 -108 -191 0
1 108 194 0
1 108 198 0
1 -108 200 0
1 108 187 0
1 -108 -201 0
1 108 -183 0
1 184 199 0
1 -184 -202 0
1 -184 -191 0
1 -184 -176 0
1 -184 198 0
1 -184 -187 0
1 -184 189 0
1 115 203 0
1 -115 204 0
1 204 -203 0
1 -204 -205 0
1 -204 -206 0
1 204 -115 0
1 207 203 0
1 -207 -208 0
1 207 -206 0
1 -123 -209 0
1 -123 203 0
1 123 210 0
1 123 -206 0
1 123 207 0
1 123 -211 0
1 -203 126 0
1 203 -123 0
1 -203 -212 0
1 -203 -127 0
1 203 207 0
1 206 -126 0
1 206 -213 0
1 -214 205 0
1 214 207 0
1 -205 123 0
1 205 -215 0
1 -205 -207 0
1 128 -203 0
1 -128 -210 0
1 -128 -113 0
1 126 -112 0
1 126 60 0
1 -126 -203 0
1 -126 210 0
1 -126 113 0
1 -126 206 0
1 -126 128 0
1 126 209 0
1 127 -216 0
1 127 217 0
1 127 -112 0
1 -127 -203 0
1 127 -210 0
1 127 -218 0
1 127 113 0
1 -127 -61 0
1 -127 -206 0
1 219 217 0
1 219 62 0
1 219 -203 0
1 219 -210 0
1 219 -218 0
1 219 220 0
1 -219 -113 0
1 219 209 0
1 -219 -211 0
1 208 -124 0
1 -208 125 0
1 -211 -221 0
1 -211 -135 0
1 -211 124 0
1 211 -219 0
1 -211 -126 0
1 -211 -123 0
1 -211 222 0
1 -211 -128 0
1 211 -207 0
1 -210 -221 0
1 210 -219 0
1 -210 -123 0
1 210 -223 0
1 -210 -222 0
1 210 127 0
1 210 -128 0
1 210 207 0
1 -209 -210 0
1 -209 -222 0
1 209 -224 0
1 125 -216 0
1 -125 -217 0
1 125 117 0
1 -125 119 0
1 125 -208 0
1 -125 220 0
1 125 -58 0
1 -124 -216 0
1 -124 -217 0
1 -124 55 0
1 -124 112 0
1 124 -119 0
1 124 208 0
1 -124 -218 0
1 124 113 0
1 -124 -125 0
1 -124 120 0
1 -124 -211 0
1 -136 216 0
1 136 -71 0
1 -136 -220 0
1 136 -225 0
1 136 226 0
1 136 120 0
1 135 -216 0
1 135 69 0
1 -135 129 0
1 135 208 0
1 -135 120 0
1 220 -132 0
1 -220 217 0
1 -220 124 0
1 -220 227 0
1 -220 133 0
1 220 136 0
1 220 228 0
1 -220 127 0
1 -217 -132 0
1 217 -229 0
1 -217 219 0
1 -217 -230 0
1 217 -133 0
1 -217 220 0
1 -217 -136 0
1 -217 125 0
1 217 231 0
1 217 145 0
1 218 -216 0
1 -218 124 0
1 218 230 0
1 -218 -232 0
1 218 222 0
1 -218 -136 0
1 -218 127 0
1 218 231 0
1 -216 -233 0
1 -216 135 0
1 -216 -219 0
1 -216 232 0
1 -216 -218 0
1 216 -231 0
1 133 132 0
1 -133 217 0
1 -133 -129 0
1 -133 -234 0
1 133 119 0
1 133 -122 0
1 -133 70 0
1 133 -222 0
1 133 220 0
1 -133 -225 0
1 133 -226 0
1 -133 -120 0
1 133 -121 0
1 -133 -139 0
1 132 68 0
1 -132 -221 0
1 132 -129 0
1 132 234 0
1 -132 -119 0
1 -132 122 0
1 132 131 0
1 -132 220 0
1 -132 -225 0
1 132 -226 0
1 132 -139 0
1 -227 137 0
1 -227 81 0
1 227 232 0
1 -227 -145 0
1 145 -217 0
1 145 -129 0
1 -145 -137 0
1 -145 -131 0
1 145 -227 0
1 145 220 0
1 145 -226 0
1 226 133 0
1 -226 136 0
1 226 -235 0
1 226 142 0
1 -234 132 0
1 234 -135 0
1 -234 227 0
1 -234 -136 0
1 234 235 0
1 225 -132 0
1 225 135 0
1 225 -230 0
1 225 227 0
1 -225 133 0
1 -225 -136 0
1 -225 -113 0
1 -225 -235 0
1 -129 236 0
1 -129 230 0
1 129 -227 0
1 -129 136 0
1 129 -225 0
1 -129 237 0
1 -129 231 0
1 -141 -59 0
1 141 131 0
1 -141 -230 0
1 141 -140 0
1 141 238 0
1 141 -142 0
1 141 139 0
1 142 139 0
1 142 -59 0
1 -142 -239 0
1 -142 131 0
1 -142 -141 0
1 142 -138 0
1 142 134 0
1 151 240 0
1 -151 59 0
1 151 137 0
1 -151 -86 0
1 151 239 0
1 151 241 0
1 -151 -144 0
1 -157 -240 0
1 157 -234 0
1 -157 151 0
1 -157 -241 0
1 157 140 0
1 -157 -226 0
1 -157 88 0
1 -157 -238 0
1 -134 -151 0
1 -134 141 0
1 -134 148 0
1 134 157 0
1 -134 -142 0
1 134 -242 0
1 239 149 0
1 239 -122 0
1 -239 243 0
1 -239 -227 0
1 239 244 0
1 -239 -164 0
1 -239 148 0
1 239 -157 0
1 -239 -134 0
1 239 145 0
1 238 -245 0
1 238 227 0
1 238 -246 0
1 -238 -157 0
1 -238 -247 0
1 -238 142 0
1 137 119 0
1 -137 151 0
1 -137 -248 0
1 137 141 0
1 137 227 0
1 -137 -244 0
1 137 -246 0
1 -137 -235 0
1 137 -142 0
1 -149 -59 0
1 -149 245 0
1 -149 -241 0
1 -149 72 0
1 149 -134 0
1 -148 240 0
1 -148 -56 0
1 -148 149 0
1 -148 239 0
1 148 241 0
1 -148 -143 0
1 -148 -235 0
1 162 240 0
1 -162 147 0
1 162 239 0
1 -162 -241 0
1 -162 -143 0
1 -162 72 0
1 -162 -134 0
1 162 -144 0
1 164 -150 0
1 164 147 0
1 -164 153 0
1 -164 239 0
1 -164 249 0
1 164 -103 0
1 -164 -246 0
1 -164 134 0
1 240 -250 0
1 -240 161 0
1 240 -162 0
1 -240 151 0
1 240 -251 0
1 -240 164 0
1 -143 240 0
1 143 250 0
1 -143 -162 0
1 143 151 0
1 -143 -138 0
1 -143 -251 0
1 -143 -252 0
1 -143 159 0
1 143 164 0
1 143 -148 0
1 -143 -157 0
1 -144 -253 0
1 -144 254 0
1 -144 -157 0
1 241 253 0
1 241 255 0
1 -241 -256 0
1 -241 244 0
1 -241 -164 0
1 -241 157 0
1 -241 144 0
1 -161 -147 0
1 -161 143 0
1 -161 249 0
1 -161 146 0
1 159 240 0
1 -159 161 0
1 159 -147 0
1 -159 154 0
1 -159 -156 0
1 159 72 0
1 -159 249 0
1 -170 240 0
1 -170 -109 0
1 -170 -253 0
1 170 147 0
1 170 -257 0
1 -170 -156 0
1 -170 143 0
1 -170 258 0
1 170 -155 0
1 172 240 0
1 172 -170 0
1 172 -150 0
1 -172 147 0
1 172 -163 0
1 -172 143 0
1 -172 -256 0
1 -172 258 0
1 -147 259 0
1 -147 162 0
1 147 -178 0
1 147 -159 0
1 249 169 0
1 249 -161 0
1 249 162 0
1 249 -260 0
1 -249 178 0
1 249 -171 0
1 -249 -159 0
1 -249 261 0
1 -150 -250 0
1 -150 -170 0
1 150 -59 0
1 -150 161 0
1 150 262 0
1 -150 162 0
1 -150 260 0
1 -150 -251 0
1 150 172 0
1 -150 -159 0
1 -150 164 0
1 -152 -250 0
1 152 -170 0
1 152 161 0
1 -152 -260 0
1 152 251 0
1 -152 -159 0
1 -169 104 0
1 -169 -163 0
1 169 171 0
1 -169 87 0
1 -169 -158 0
1 -171 169 0
1 -171 -257 0
1 171 87 0
1 -171 -251 0
1 -171 -249 0
1 -180 263 0
1 -180 178 0
1 -180 -168 0
1 180 -249 0
1 -180 -258 0
1 -180 160 0
1 -180 -173 0
1 180 -183 0
1 178 163 0
1 178 -180 0
1 -178 264 0
1 178 -176 0
1 178 -265 0
1 -178 258 0
1 178 160 0
1 -178 173 0
1 178 266 0
1 -257 -170 0
1 257 160 0
1 257 -192 0
1 -257 -267 0
1 -160 170 0
1 -160 192 0
1 -160 257 0
1 160 -146 0
1 160 -268 0
1 -160 267 0
1 160 -177 0
1 160 180 0
1 163 153 0
1 -163 260 0
1 163 178 0
1 163 171 0
1 -163 258 0
1 -163 -268 0
1 258 169 0
1 258 -163 0
1 258 -260 0
1 -258 178 0
1 -258 268 0
1 258 -269 0
1 -177 -166 0
1 177 -257 0
1 -177 -175 0
1 -177 -168 0
1 -177 -173 0
1 -177 -266 0
1 175 166 0
1 -175 -264 0
1 175 168 0
1 -175 83 0
1 175 -266 0
1 -175 160 0
1 175 177 0
1 267 -270 0
1 267 101 0
1 267 -257 0
1 -267 264 0
1 267 188 0
1 -267 -269 0
1 -192 168 0
1 192 -179 0
1 192 271 0
1 -192 160 0
1 192 267 0
1 168 -272 0
1 -168 178 0
1 -168 -200 0
1 -168 -187 0
1 168 -267 0
1 -266 -272 0
1 266 -185 0
1 266 192 0
1 266 168 0
1 266 267 0
1 -264 273 0
1 264 274 0
1 264 -192 0
1 264 -156 0
1 264 -175 0
1 264 -178 0
1 -264 -275 0
1 264 -180 0
1 173 175 0
1 -173 264 0
1 -173 -178 0
1 173 275 0
1 173 -276 0
1 -173 268 0
1 -173 267 0
1 -173 277 0
1 173 177 0
1 -173 -180 0
1 -187 -181 0
1 187 101 0
1 -187 182 0
1 187 -184 0
1 -187 -168 0
1 -187 271 0
1 187 108 0
1 187 -266 0
1 185 270 0
1 -185 182 0
1 185 184 0
1 185 274 0
1 -185 179 0
1 185 174 0
1 -185 -96 0
1 -185 187 0
1 -185 -266 0
1 -200 193 0
1 -200 -199 0
1 -200 -184 0
1 -200 168 0
1 -200 108 0
1 -199 -184 0
1 199 -190 0
1 199 -200 0
1 -199 -266 0
1 -271 278 0
1 -271 279 0
1 271 -199 0
1 -271 -192 0
1 271 83 0
1 -271 200 0
1 -271 187 0
1 -271 267 0
1 270 279 0
1 270 166 0
1 270 -195 0
1 270 192 0
1 -270 -271 0
1 270 -198 0
1 270 267 0
1 179 278 0
1 179 181 0
1 -179 -280 0
1 -179 272 0
1 179 -185 0
1 -179 -192 0
1 179 -87 0
1 179 281 0
1 -179 282 0
1 179 -275 0
1 -181 -278 0
1 181 280 0
1 181 185 0
1 -181 -192 0
1 181 -281 0
1 -181 -179 0
1 -181 -200 0
1 -181 187 0
1 181 -267 0
1 198 -190 0
1 198 271 0
1 -198 275 0
1 198 -283 0
1 -198 105 0
1 195 -270 0
1 195 272 0
1 195 184 0
1 195 -106 0
1 -195 198 0
1 195 186 0
1 -195 108 0
1 195 105 0
1 -284 279 0
1 -284 270 0
1 284 197 0
1 -284 -271 0
1 284 -283 0
1 -284 186 0
1 -284 -201 0
1 279 -190 0
1 279 -202 0
1 279 -197 0
1 -279 -284 0
1 279 271 0
1 -279 -186 0
1 279 196 0
1 186 -279 0
1 186 -284 0
1 -186 198 0
1 186 -200 0
1 186 -96 0
1 -186 -285 0
1 -190 -195 0
1 -190 199 0
1 190 -286 0
1 -190 287 0
1 -190 -284 0
1 190 198 0
1 190 -186 0
1 -283 193 0
1 -283 -199 0
1 283 288 0
1 283 -284 0
1 283 -174 0
1 283 200 0
1 283 289 0
1 -193 278 0
1 -193 -279 0
1 193 195 0
1 -193 198 0
1 193 -200 0
1 -193 289 0
1 287 -202 0
1 -287 197 0
1 287 -285 0
1 287 -186 0
1 -287 201 0
1 285 -202 0
1 -285 197 0
1 -285 -287 0
1 285 -201 0
1 286 190 0
1 286 -202 0
1 -286 -288 0
1 -286 -290 0
1 -290 -190 0
1 290 -202 0
1 290 197 0
1 290 186 0
1 290 -201 0
1 -290 289 0
1 -196 -279 0
1 -196 197 0
1 196 286 0
1 196 -287 0
1 -196 -284 0
1 -196 -105 0
1 196 -290 0
1 -196 285 0
1 197 279 0
1 -197 -287 0
1 197 284 0
1 -197 196 0
1 197 -285 0
1 201 279 0
1 201 -202 0
1 201 -108 0
1 201 -285 0
1 -202 -279 0
1 -202 184 0
1 202 -286 0
1 202 -284 0
1 202 285 0
1 -222 -216 0
1 -222 221 0
1 -222 291 0
1 222 -208 0
1 -222 -133 0
1 222 -213 0
1 221 -132 0
1 221 216 0
1 221 -291 0
1 -221 -212 0
1 -221 208 0
1 -221 218 0
1 -221 213 0
1 -221 209 0
1 -232 -233 0
1 232 -216 0
1 -232 -291 0
1 232 -223 0
1 -232 -224 0
1 233 -216 0
1 -233 -291 0
1 -233 212 0
1 -233 -232 0
1 233 -218 0
1 -233 -215 0
1 -233 213 0
1 -233 145 0
1 -212 -292 0
1 212 -232 0
1 212 222 0
1 -212 -231 0
1 -213 233 0
1 -213 292 0
1 -213 230 0
1 213 -232 0
1 -213 -237 0
1 -213 -231 0
1 291 221 0
1 291 214 0
1 -291 293 0
1 -215 233 0
1 215 -294 0
1 -215 232 0
1 -215 205 0
1 230 217 0
1 -230 212 0
1 -230 295 0
1 -230 -231 0
1 231 216 0
1 231 -217 0
1 231 -212 0
1 -231 -230 0
1 231 -223 0
1 231 218 0
1 -231 -220 0
1 -231 -142 0
1 231 -224 0
1 292 -151 0
1 -292 -296 0
1 292 -237 0
1 237 -297 0
1 -237 223 0
1 237 296 0
1 -237 228 0
1 -237 225 0
1 237 -213 0
1 -237 -224 0
1 -295 298 0
1 -295 -299 0
1 -295 245 0
1 295 292 0
1 -295 -208 0
1 -295 -232 0
1 295 246 0
1 -300 -233 0
1 300 301 0
1 -300 -298 0
1 -300 -299 0
1 300 -245 0
1 300 -232 0
1 -223 -233 0
1 -223 298 0
1 223 -210 0
1 223 230 0
1 -223 302 0
1 -223 -232 0
1 -223 -237 0
1 -224 298 0
1 -224 292 0
1 -224 232 0
1 224 -209 0
1 -245 -129 0
1 245 -234 0
1 245 -149 0
1 -245 -137 0
1 245 296 0
1 245 226 0
1 245 -235 0
1 245 -238 0
1 -235 -300 0
1 -235 129 0
1 235 234 0
1 235 228 0
1 -235 -148 0
1 -299 -229 0
1 299 -162 0
1 299 -295 0
1 -299 303 0
1 -246 -236 0
1 246 -137 0
1 -246 304 0
1 -246 -295 0
1 246 -228 0
1 246 -164 0
1 -246 -303 0
1 -246 238 0
1 -228 -305 0
1 228 229 0
1 -228 -254 0
1 228 -299 0
1 -228 292 0
1 -228 306 0
1 228 -220 0
1 228 244 0
1 -228 -235 0
1 -228 237 0
1 229 305 0
1 229 253 0
1 229 217 0
1 -229 -254 0
1 229 307 0
1 -229 -244 0
1 229 -228 0
1 229 246 0
1 296 -297 0
1 296 -299 0
1 296 306 0
1 -296 308 0
1 297 -305 0
1 -297 309 0
1 297 299 0
1 -297 245 0
1 -297 -292 0
1 -297 296 0
1 297 -246 0
1 297 -235 0
1 297 237 0
1 254 236 0
1 254 239 0
1 254 -244 0
1 -254 310 0
1 -254 -134 0
1 254 144 0
1 -244 -229 0
1 244 -254 0
1 244 -236 0
1 -244 -304 0
1 244 137 0
1 -244 -159 0
1 -244 -311 0
1 -244 310 0
1 244 238 0
1 -244 134 0
1 253 -229 0
1 253 243 0
1 253 -241 0
1 253 228 0
1 253 310 0
1 -256 253 0
1 256 229 0
1 256 -248 0
1 -256 -243 0
1 256 -172 0
1 256 -247 0
1 -256 -242 0
1 256 -144 0
1 -303 250 0
1 303 254 0
1 303 299 0
1 -303 -312 0
1 -303 265 0
1 303 246 0
1 303 313 0
1 304 250 0
1 304 -253 0
1 -304 -254 0
1 -304 234 0
1 -304 312 0
1 -304 251 0
1 304 246 0
1 304 -303 0
1 -304 314 0
1 -310 -305 0
1 -310 253 0
1 -310 -254 0
1 310 236 0
1 310 315 0
1 -310 256 0
1 -310 -244 0
1 310 246 0
1 -310 -316 0
1 -236 -317 0
1 -236 -305 0
1 236 318 0
1 -236 312 0
1 236 256 0
1 236 314 0
1 -250 169 0
1 250 240 0
1 -250 -305 0
1 250 150 0
1 250 -304 0
1 250 143 0
1 250 251 0
1 250 -303 0
1 250 247 0
1 250 -242 0
1 250 144 0
1 251 240 0
1 -251 -250 0
1 251 -243 0
1 -251 -143 0
1 -251 -306 0
1 251 -303 0
1 251 -247 0
1 -251 242 0
1 263 -317 0
1 -263 319 0
1 263 150 0
1 263 304 0
1 -263 -248 0
1 263 -243 0
1 -263 255 0
1 263 252 0
1 -263 303 0
1 -263 180 0
1 -265 263 0
1 -265 -248 0
1 -265 255 0
1 265 -252 0
1 265 242 0
1 242 250 0
1 242 -253 0
1 -242 260 0
1 -242 243 0
1 242 -265 0
1 -242 -269 0
1 -242 320 0
1 -243 -321 0
1 -243 260 0
1 243 -322 0
1 -247 -263 0
1 -247 253 0
1 247 -248 0
1 -247 -312 0
1 -247 -265 0
1 247 -256 0
1 247 323 0
1 -248 250 0
1 -248 253 0
1 -248 -324 0
1 248 312 0
1 248 265 0
1 -248 251 0
1 -248 -256 0
1 248 -325 0
1 248 -314 0
1 260 -163 0
1 260 -175 0
1 -260 252 0
1 260 152 0
1 -260 -249 0
1 -260 258 0
1 269 326 0
1 -269 319 0
1 -269 262 0
1 269 163 0
1 269 -243 0
1 269 255 0
1 -269 -252 0
1 -269 -261 0
1 269 -267 0
1 -269 323 0
1 -321 -326 0
1 321 -259 0
1 -321 -163 0
1 321 192 0
1 -321 -324 0
1 321 -255 0
1 -321 -252 0
1 -321 261 0
1 319 -263 0
1 319 -327 0
1 -319 273 0
1 319 265 0
1 -319 -268 0
1 -252 -319 0
1 -252 273 0
1 252 268 0
1 -252 269 0
1 326 263 0
1 -326 328 0
1 -326 321 0
1 -326 265 0
1 326 329 0
1 326 325 0
1 -326 144 0
1 255 263 0
1 255 326 0
1 -255 -330 0
1 -255 -321 0
1 255 -260 0
1 255 -241 0
1 255 -329 0
1 268 -259 0
1 268 -257 0
1 268 -264 0
1 268 252 0
1 -268 187 0
1 -274 319 0
1 -274 -330 0
1 274 257 0
1 274 -259 0
1 -274 264 0
1 274 173 0
1 276 319 0
1 276 262 0
1 -276 273 0
1 276 259 0
1 -276 331 0
1 -276 332 0
1 -276 -264 0
1 -276 200 0
1 -276 329 0
1 276 -333 0
1 -273 199 0
1 273 262 0
1 -273 259 0
1 -273 -332 0
1 -273 -334 0
1 -273 261 0
1 273 -276 0
1 273 333 0
1 -273 -173 0
1 259 -272 0
1 -259 -335 0
1 259 -282 0
1 -259 -275 0
1 -259 -276 0
1 -261 272 0
1 -261 273 0
1 261 321 0
1 -261 335 0
1 261 275 0
1 261 -249 0
1 -261 276 0
1 -262 -336 0
1 262 337 0
1 262 -150 0
1 -262 338 0
1 262 273 0
1 262 274 0
1 -262 -334 0
1 262 339 0
1 262 -276 0
1 -334 -337 0
1 -334 -273 0
1 -334 -274 0
1 -334 321 0
1 334 -335 0
1 -334 -339 0
1 -334 276 0
1 334 269 0
1 275 272 0
1 275 259 0
1 -275 331 0
1 -275 -264 0
1 -275 168 0
1 275 -179 0
1 -275 198 0
1 -275 -340 0
1 272 181 0
1 272 -195 0
1 272 -338 0
1 272 -331 0
1 -272 275 0
1 -272 -173 0
1 -282 181 0
1 -282 -331 0
1 282 -341 0
1 282 -284 0
1 282 342 0
1 282 340 0
1 282 277 0
1 280 -259 0
1 280 -332 0
1 -280 343 0
1 280 282 0
1 280 340 0
1 -280 -277 0
1 -280 344 0
1 332 -272 0
1 332 -257 0
1 332 -288 0
1 -332 275 0
1 -332 276 0
1 332 340 0
1 -332 -289 0
1 340 -273 0
1 340 -332 0
1 -340 282 0
1 340 -275 0
1 -340 -160 0
1 331 -272 0
1 -331 273 0
1 331 163 0
1 -331 -345 0
1 -331 282 0
1 -331 -276 0
1 -331 -333 0
1 -331 346 0
1 333 331 0
1 333 345 0
1 333 -335 0
1 -333 -282 0
1 -281 -278 0
1 -281 -287 0
1 281 -271 0
1 -278 -336 0
1 278 -270 0
1 -278 -193 0
1 278 281 0
1 -278 179 0
1 -278 271 0
1 278 -283 0
1 278 -340 0
1 -278 -285 0
1 -288 286 0
1 -288 -341 0
1 288 345 0
1 288 289 0
1 289 -193 0
1 -289 332 0
1 289 -343 0
1 289 -340 0
1 289 344 0
1 341 -280 0
1 341 168 0
1 341 -282 0
1 344 280 0
1 -344 288 0
1 344 341 0
1 -344 266 0
1 -343 -278 0
1 343 -288 0
1 -343 -289 0
1 -277 -278 0
1 -277 -280 0
1 -277 343 0
1 277 288 0
1 277 282 0
1 277 -173 0
1 298 -300 0
1 -298 -297 0
1 -298 -254 0
1 -298 -347 0
1 -298 223 0
1 -298 295 0
1 298 296 0
1 298 -311 0
1 -298 -348 0
1 311 -297 0
1 311 -298 0
1 311 223 0
1 -311 -295 0
1 -311 244 0
1 -311 -294 0
1 -311 348 0
1 309 -297 0
1 309 -253 0
1 309 349 0
1 309 -296 0
1 309 294 0
1 -350 302 0
1 -350 -349 0
1 -350 -256 0
1 -347 -317 0
1 347 -305 0
1 -347 -212 0
1 347 -311 0
1 -347 -348 0
1 -348 317 0
1 -348 -298 0
1 348 315 0
1 -348 213 0
1 348 351 0
1 -293 309 0
1 293 298 0
1 -293 -352 0
1 -294 -298 0
1 294 -293 0
1 294 -350 0
1 -294 311 0
1 294 -215 0
1 -305 -301 0
1 305 229 0
1 -305 -236 0
1 305 -347 0
1 -305 -302 0
1 305 306 0
1 305 349 0
1 -305 310 0
1 305 353 0
1 -306 301 0
1 -306 -305 0
1 306 -347 0
1 306 -349 0
1 -306 353 0
1 317 236 0
1 317 347 0
1 317 349 0
1 317 310 0
1 -317 348 0
1 -317 353 0
1 315 317 0
1 315 -347 0
1 315 265 0
1 315 -354 0
1 -349 317 0
1 -349 -301 0
1 -349 305 0
1 -349 355 0
1 349 306 0
1 -349 356 0
1 -301 300 0
1 301 357 0
1 301 -305 0
1 -301 -309 0
1 -301 -355 0
1 -301 -324 0
1 301 306 0
1 301 349 0
1 301 -356 0
1 301 323 0
1 -301 -314 0
1 302 305 0
1 -302 309 0
1 302 -306 0
1 302 -358 0
1 302 -356 0
1 353 -305 0
1 353 -309 0
1 353 -224 0
1 353 355 0
1 -314 -301 0
1 314 236 0
1 314 349 0
1 -314 -303 0
1 312 236 0
1 -312 -248 0
1 312 349 0
1 -312 -354 0
1 312 -310 0
1 -312 247 0
1 -312 -314 0
1 -323 318 0
1 -323 -248 0
1 323 324 0
1 323 -349 0
1 -323 308 0
1 -323 247 0
1 324 -301 0
1 -324 359 0
1 -324 -318 0
1 324 248 0
1 324 349 0
1 -324 308 0
1 -324 -354 0
1 -324 -247 0
1 354 317 0
1 -354 -360 0
1 354 330 0
1 354 -361 0
1 -354 -329 0
1 -307 229 0
1 -307 -362 0
1 -307 363 0
1 307 -354 0
1 -307 -361 0
1 307 -329 0
1 -308 317 0
1 -308 -359 0
1 -308 362 0
1 -308 -355 0
1 308 -324 0
1 308 315 0
1 308 296 0
1 308 364 0
1 308 356 0
1 308 -314 0
1 -359 -297 0
1 -359 -324 0
1 -359 -312 0
1 359 -315 0
1 359 308 0
1 359 -364 0
1 -359 356 0
1 325 307 0
1 -325 -318 0
1 325 -330 0
1 325 248 0
1 -325 243 0
1 325 255 0
1 -325 313 0
1 -330 -274 0
1 -330 -355 0
1 330 -248 0
1 330 243 0
1 330 -354 0
1 330 316 0
1 330 -325 0
1 -330 247 0
1 330 -242 0
1 -329 -307 0
1 -329 328 0
1 -329 -318 0
1 329 -365 0
1 329 322 0
1 -329 -276 0
1 329 -364 0
1 -328 -307 0
1 -328 -366 0
1 328 -255 0
1 -328 -329 0
1 328 316 0
1 -328 -320 0
1 313 -367 0
1 313 328 0
1 -313 -330 0
1 -313 -324 0
1 313 -303 0
1 313 -342 0
1 -313 329 0
1 -313 -325 0
1 365 -337 0
1 -365 338 0
1 365 -368 0
1 -316 367 0
1 316 362 0
1 316 324 0
1 316 -368 0
1 -316 369 0
1 -316 361 0
1 316 325 0
1 318 370 0
1 318 -328 0
1 -318 330 0
1 318 324 0
1 -318 -368 0
1 318 -316 0
1 339 -326 0
1 -339 319 0
1 339 -262 0
1 -339 366 0
1 339 322 0
1 -339 255 0
1 -339 -361 0
1 -338 326 0
1 338 272 0
1 -338 -362 0
1 -338 365 0
1 -338 366 0
1 338 322 0
1 -338 -252 0
1 338 339 0
1 338 -320 0
1 342 371 0
1 -342 337 0
1 342 262 0
1 -342 365 0
1 -342 -366 0
1 342 -372 0
1 342 -320 0
1 337 371 0
1 337 -327 0
1 337 365 0
1 -337 322 0
1 337 -373 0
1 337 372 0
1 337 334 0
1 -337 342 0
1 337 -374 0
1 320 -336 0
1 -320 328 0
1 -320 -335 0
1 320 -339 0
1 320 -329 0
1 320 -242 0
1 320 346 0
1 -322 328 0
1 -322 -335 0
1 322 -342 0
1 -322 -346 0
1 -374 375 0
1 374 -337 0
1 -374 -338 0
1 -374 -368 0
1 374 -342 0
1 374 -339 0
1 -374 -329 0
1 -374 -247 0
1 -366 -375 0
1 -366 248 0
1 -366 -376 0
1 366 342 0
1 366 -374 0
1 366 329 0
1 -335 322 0
1 -335 281 0
1 335 368 0
1 -335 320 0
1 -336 -278 0
1 336 371 0
1 336 327 0
1 336 262 0
1 -336 -373 0
1 -336 335 0
1 336 334 0
1 -336 333 0
1 -336 320 0
1 345 371 0
1 345 372 0
1 -346 375 0
1 -346 371 0
1 346 -327 0
1 -346 345 0
1 346 -373 0
1 -346 -372 0
1 -327 -337 0
1 -327 346 0
1 -372 -336 0
1 -372 337 0
1 -372 -252 0
1 372 335 0
1 -372 -342 0
1 372 346 0
1 371 -326 0
1 -371 -336 0
1 -371 345 0
1 371 342 0
1 -371 346 0
1 373 336 0
1 373 -371 0
1 373 337 0
1 -373 -255 0
1 -373 345 0
1 356 -377 0
1 -356 -301 0
1 -356 308 0
1 -356 -325 0
1 -356 -353 0
1 -355 -359 0
1 -355 -330 0
1 -355 -352 0
1 -355 -378 0
1 355 302 0
1 355 -308 0
1 355 377 0
1 -364 352 0
1 364 -358 0
1 -364 329 0
1 -364 377 0
1 379 357 0
1 -379 -359 0
1 379 380 0
1 -379 -308 0
1 379 -364 0
1 379 -377 0
1 -378 370 0
1 378 -362 0
1 378 -369 0
1 -378 -364 0
1 351 -370 0
1 351 355 0
1 351 -364 0
1 -351 -348 0
1 -352 379 0
1 -352 -355 0
1 -352 -293 0
1 -377 379 0
1 -377 -355 0
1 -377 -352 0
1 -361 -359 0
1 361 -307 0
1 -361 362 0
1 -361 308 0
1 -361 -339 0
1 -361 -351 0
1 362 -381 0
1 362 380 0
1 362 308 0
1 362 -354 0
1 369 382 0
1 -369 -363 0
1 -369 378 0
1 369 358 0
1 -369 380 0
1 369 383 0
1 369 -360 0
1 -369 -316 0
1 -369 -351 0
1 -370 381 0
1 370 337 0
1 -370 -378 0
1 370 380 0
1 370 -369 0
1 370 383 0
1 -370 -360 0
1 -370 316 0
1 380 357 0
1 -380 -370 0
1 380 362 0
1 -380 -376 0
1 -380 349 0
1 -380 368 0
1 -380 -361 0
1 -380 364 0
1 357 -375 0
1 357 -301 0
1 -357 -367 0
1 357 370 0
1 357 -379 0
1 357 -376 0
1 357 368 0
1 -357 -380 0
1 -358 -370 0
1 -358 362 0
1 -358 -302 0
1 -358 -369 0
1 -358 364 0
1 381 -370 0
1 381 -362 0
1 -381 358 0
1 381 -369 0
1 381 361 0
1 381 364 0
1 -381 -353 0
1 -368 363 0
1 368 318 0
1 -368 -366 0
1 -368 -335 0
1 368 -360 0
1 -368 316 0
1 -368 -374 0
1 -367 382 0
1 367 365 0
1 -367 -366 0
1 -367 -368 0
1 367 360 0
1 367 316 0
1 367 374 0
1 376 375 0
1 376 -357 0
1 -376 382 0
1 -376 -366 0
1 376 380 0
1 376 -383 0
1 -376 -374 0
1 -375 380 0
1 375 -383 0
1 -375 -360 0
1 375 374 0
1 -375 346 0
1 360 375 0
1 360 370 0
1 -360 -376 0
1 -360 -368 0
1 -360 -369 0
1 -363 -375 0
1 363 -370 0
1 363 307 0
1 363 -376 0
1 -363 368 0
1 -383 375 0
1 383 370 0
1 383 -376 0
1 -383 368 0
1 383 -308 0
1 383 369 0
1 -382 375 0
1 -382 -376 0
1 -382 -368 0
1 -382 -369 0
